Products =  { "kluski" "capellini" "fettucine" };
Resources = { "flour" "eggs" };

product = #[
      kluski : < 100, 0.6, 0.8, [ 0.5, 0.2 ] >
      capellini : < 200, 0.8, 0.9, [ 0.4, 0.4 ] >
      fettucine : < 300, 0.3, 0.4, [ 0.3, 0.6 ] >
          ]#;
          
availability = [ 120, 150 ];

maxOutsideProduction = 200; // contractual maximum amount that may be outsourced for any product.

